webassembly/ejemplos_dzn/folder15_json_79.dzn
TERM = { '.', 's(2)', 'in_1', 'local_0', 'local_1', 'in_6', 'in_2', 'in_4', 'in_3', 'in_8', 's(1)', 's(0)', 'in_7', 'in_5', 's(3)', 'in_0'};
null = '.';
s = 15;
n = 15;
ndeps = 4;
max_registers_sz = 5;
NR = 2;
registers = [|'local_0', 's(2)', |'local_1', 's(1)'|];
dependencies = [|'i32.load16_s_0', 'i32.store16_6', |'i32.store16_6', 'i32.store8_10', |'i32.store8_10', 'call[function_index(0)]_13', |'call[function_index(0)]_13', 'i32.store16_14'|];
GET_ENUM = { GET1, GET2, GET3, GET4, GET5, GET6, GET7};
SET_ENUM = { SET1, SET2, SET3, SET4, SET5, SET6, SET7};
TEE_ENUM = { TEE1, TEE2, TEE3, TEE4, TEE5, TEE6, TEE7};
N = 8;
OP = { 'i32.const_0', 'i32.sub_0', 'call[function_index(0)]_13', 'i32.load16_s_0', 'i32.store16_6', 'i32.store8_10', 'i32.store16_14', 'i32.add_0' };
in_ops = [0, 2, 3, 1, 2, 2, 2, 2 ];
out_ops = [1, 1, 0, 1, 0, 0, 0, 1 ];
in1 = ['.', 's(0)', 's(1)', 'in_0', 'in_1', 's(1)', 'in_7', 'in_3' ];
in2 = ['.', 's(3)', 's(1)', '.', 'in_2', 'in_5', 'in_8', 'in_4' ];
in3 = ['.', '.', 'in_6', '.', '.', '.', '.', '.' ];
out1 = ['s(3)', 's(1)', '.', 's(0)', '.', '.', '.', 's(2)' ];
out2 = ['.', '.', '.', '.', '.', '.', '.', '.' ];
out3 = ['.', '.', '.', '.', '.', '.', '.', '.' ];
comm = [false, false, false, false, false, false, false, true ];
gas = [1, 1, 1, 1, 1, 1, 1, 1 ];
sz = [1, 1, 1, 1, 1, 1, 1, 1 ];
stor = [false, false, true, false, true, true, true, false ];
lb = [ 1, 1, 1, 1, 1, 1, 1, 1 ];
ub = [ 15, 15, 15, 15, 15, 15, 15, 15 ];
startstack = [ 'in_0', 'in_1', 'in_2', 'in_3', 'in_4', 'in_5', 'in_6', 'in_7', 'in_8', null, null, null, null, null, null ];
endstack = [ null, null, null, null, null, null, null, null, null, null, null, null, null, null, null ];
